161
0 88 27 59 6 119 60 154 124 98 
87 92 151 127 20 90 146 159 37 138 
3 147 15 144 75 73 84 28 102 34 
115 52 135 118 156 25 152 150 78 64 
11 77 142 140 41 114 9 125 35 107 
66 61 40 129 134 49 80 62 19 17 
97 85 120 54 89 101 86 29 113 74 
99 48 148 65 71 108 82 43 69 110 
137 50 96 23 109 158 26 44 13 133 
57 16 111 51 36 157 68 79 132 55 
149 7 131 67 112 45 1 130 4 116 
95 10 42 70 103 155 93 100 104 21 
94 81 160 14 18 76 123 46 58 53 
128 8 32 30 105 31 122 47 22 91 
33 56 39 141 2 126 106 139 117 143 
5 121 63 153 24 136 83 38 72 12 
145 
